(set-info :source |printed by MathSAT|)
(declare-fun ldv_module_refcounter () (_ BitVec 32))

*:
(assert (let ((.def_40023 (= ldv_module_refcounter (_ bv1 32)))).def_40023))
(assert (let ((.def_40028 (bvslt (_ bv1 32) ldv_module_refcounter))).def_40028))

